4 
5  52 
6  07 22 37 52 
7  07 23 38 53 
8  08 23 38 53 
9  08 23 38 53 
10  08 22 37 52 
11  07 22 37 52 
12  07 22 37 52 
13  07 22 37 53 
14  08 23 38 53 
15  08 23 40 55 
16  10 25 40 55 
17  10 25 40 55 
18  10 25 40 55 
19  10 25 39 53 
20  08 22 37 52 
21  07 22 37 52 
22  07 22 37 54 
23  08 22 39 
0 
